Zn-N2 bridged primitive-cubic MOF-like network (idealized test structure, pcu topology)
1.0
   5.10000000   0.00000000   0.00000000
   0.00000000   5.10000000   0.00000000
   0.00000000   0.00000000   5.10000000
Zn   N
1    6
Cartesian
   0.00000000   0.00000000   0.00000000
   2.00000000   0.00000000   0.00000000
   3.10000000   0.00000000   0.00000000
   0.00000000   2.00000000   0.00000000
   0.00000000   3.10000000   0.00000000
   0.00000000   0.00000000   2.00000000
   0.00000000   0.00000000   3.10000000
